outputs/case_247.model.txt
media_report_submitted = False
media_report_not_possible = False
reasonable_purpose_explained = True
suspicious_transaction_report_submitted = False
same_customer_multiple_cash_transactions = False
transaction_involves_terrorist_organization = False
transaction_beneficial_owner_is_terrorist = False
written_report_approved = False
same_customer_cash_multiple_remittances = False
transaction_related_to_business_nature = True
transaction_matches_customer_income = True
same_account_daily_cash_deposit = False
transaction_funds_suspected_terrorism_related = False
transaction_identified_as_suspicious_by_internal_procedure = False
customer_identification_data_retention_years = 0
transaction_from_high_risk_country = False
temporary_transaction_data_retention_years = 5
same_account_daily_cash_withdrawal = False
risk_based_approach_applied = True
beneficial_owner_reviewed = True
other_designated_matters_complied = True
dedicated_personnel_assigned = True
training_held_regularly = True
internal_control_implemented = True
audit_procedures_established = True
risk_assessment_report_updated = True
control_procedures_established = True
enhanced_due_diligence_executed = True
customer_identification_procedure_implemented = True
internal_control_executed = True
customer_identification_data_retained = True
suspicious_transaction_reporting_compliance = True
enhanced_customer_due_diligence_applied = True
penalty = False
internal_control_compliance = True
suspicious_transaction_reported = False
internal_control_established = True
suspicious_transaction_report_required = False
currency_transaction_reported = False
customer_identification_compliance = True
customer_identification_procedure_established = True